NAME : portcgen-26-4
COMMENT : portcgen N=26, seed=4
TYPE : TSP
DIMENSION : 26
EDGE_WEIGHT_TYPE : EUC_2D
NODE_COORD_SECTION
1 48385 -295684
2 -91980 15135
3 160657 -445312
4 69747 -167751
5 -158031 -97311
6 -100558 -194598
7 5091 25218
8 149866 -191306
9 137496 -250651
10 89994 174729
11 303664 325205
12 5117 13703
13 -297633 -187616
14 -176712 -50204
15 159705 -89956
16 -169861 -111870
17 230662 -108933
18 -169673 -96203
19 -10113 -226767
20 -292668 171454
21 32281 46628
22 112483 198761
23 -76402 -342946
24 368498 104236
25 -180427 -307811
26 -118200 -178935
